wcsp 50 3 251 512409557603043100
3 3 3 3 3 3 3 3 3 3 3 3 3 3 3 3 3 3 3 3 3 3 3 3 3 3 3 3 3 3 3 3 3 3 3 3 3 3 3 3 3 3 3 3 3 3 3 3 3 3
2 4 25 0 9
0 0 0
0 1 3
0 2 0
1 0 2
1 1 3
1 2 0
2 0 2
2 1 1
2 2 0
2 33 40 0 9
0 0 0
0 1 1
0 2 0
1 0 0
1 1 3
1 2 1
2 0 3
2 1 0
2 2 3
2 27 48 0 9
0 0 3
0 1 0
0 2 1
1 0 3
1 1 0
1 2 0
2 0 1
2 1 1
2 2 0
2 8 33 0 9
0 0 0
0 1 0
0 2 0
1 0 1
1 1 2
1 2 1
2 0 3
2 1 2
2 2 0
2 4 43 0 9
0 0 2
0 1 0
0 2 0
1 0 0
1 1 0
1 2 1
2 0 3
2 1 3
2 2 3
2 9 17 0 9
0 0 1
0 1 1
0 2 0
1 0 3
1 1 0
1 2 1
2 0 0
2 1 0
2 2 1
2 19 42 0 9
0 0 1
0 1 3
0 2 1
1 0 0
1 1 2
1 2 3
2 0 0
2 1 0
2 2 0
2 0 35 0 9
0 0 0
0 1 1
0 2 2
1 0 3
1 1 1
1 2 2
2 0 0
2 1 0
2 2 0
2 4 14 0 9
0 0 3
0 1 0
0 2 3
1 0 0
1 1 2
1 2 2
2 0 3
2 1 0
2 2 0
2 14 25 0 9
0 0 3
0 1 0
0 2 0
1 0 0
1 1 2
1 2 3
2 0 1
2 1 0
2 2 2
2 28 42 0 9
0 0 2
0 1 1
0 2 0
1 0 3
1 1 0
1 2 0
2 0 0
2 1 3
2 2 2
2 24 44 0 9
0 0 3
0 1 2
0 2 0
1 0 3
1 1 0
1 2 0
2 0 1
2 1 0
2 2 2
2 0 48 0 9
0 0 2
0 1 0
0 2 0
1 0 0
1 1 2
1 2 2
2 0 1
2 1 2
2 2 0
2 24 34 0 9
0 0 0
0 1 0
0 2 2
1 0 3
1 1 1
1 2 3
2 0 1
2 1 0
2 2 0
2 7 28 0 9
0 0 0
0 1 0
0 2 2
1 0 0
1 1 3
1 2 3
2 0 1
2 1 0
2 2 3
2 1 44 0 9
0 0 0
0 1 0
0 2 0
1 0 3
1 1 1
1 2 3
2 0 2
2 1 0
2 2 3
2 18 47 0 9
0 0 3
0 1 0
0 2 0
1 0 2
1 1 1
1 2 2
2 0 1
2 1 0
2 2 0
2 32 43 0 9
0 0 0
0 1 0
0 2 1
1 0 1
1 1 3
1 2 2
2 0 0
2 1 1
2 2 0
2 24 40 0 9
0 0 1
0 1 0
0 2 1
1 0 0
1 1 2
1 2 1
2 0 0
2 1 3
2 2 0
2 19 46 0 9
0 0 0
0 1 0
0 2 0
1 0 1
1 1 3
1 2 2
2 0 2
2 1 0
2 2 3
2 19 23 0 9
0 0 0
0 1 0
0 2 0
1 0 1
1 1 1
1 2 0
2 0 3
2 1 1
2 2 1
2 22 32 0 9
0 0 0
0 1 0
0 2 1
1 0 0
1 1 2
1 2 2
2 0 1
2 1 0
2 2 2
2 0 34 0 9
0 0 0
0 1 3
0 2 0
1 0 1
1 1 2
1 2 2
2 0 0
2 1 0
2 2 2
2 2 18 0 9
0 0 1
0 1 3
0 2 3
1 0 0
1 1 0
1 2 1
2 0 0
2 1 0
2 2 1
2 28 44 0 9
0 0 0
0 1 0
0 2 0
1 0 2
1 1 0
1 2 3
2 0 2
2 1 1
2 2 2
2 1 23 0 9
0 0 0
0 1 1
0 2 2
1 0 0
1 1 1
1 2 1
2 0 1
2 1 0
2 2 0
2 1 28 0 9
0 0 1
0 1 0
0 2 1
1 0 3
1 1 3
1 2 0
2 0 3
2 1 0
2 2 0
2 2 23 0 9
0 0 2
0 1 0
0 2 2
1 0 3
1 1 0
1 2 0
2 0 2
2 1 0
2 2 3
2 3 9 0 9
0 0 3
0 1 0
0 2 1
1 0 1
1 1 2
1 2 0
2 0 2
2 1 0
2 2 0
2 16 47 0 9
0 0 3
0 1 0
0 2 0
1 0 2
1 1 1
1 2 1
2 0 0
2 1 2
2 2 0
2 21 34 0 9
0 0 0
0 1 1
0 2 1
1 0 2
1 1 0
1 2 2
2 0 0
2 1 2
2 2 0
2 28 30 0 9
0 0 0
0 1 2
0 2 0
1 0 0
1 1 2
1 2 1
2 0 2
2 1 3
2 2 0
2 20 44 0 9
0 0 2
0 1 0
0 2 0
1 0 0
1 1 0
1 2 1
2 0 2
2 1 3
2 2 3
2 15 25 0 9
0 0 3
0 1 2
0 2 1
1 0 0
1 1 0
1 2 3
2 0 3
2 1 0
2 2 0
2 3 4 0 9
0 0 2
0 1 0
0 2 3
1 0 1
1 1 0
1 2 0
2 0 3
2 1 3
2 2 0
2 0 28 0 9
0 0 0
0 1 2
0 2 2
1 0 0
1 1 1
1 2 0
2 0 0
2 1 2
2 2 2
2 2 14 0 9
0 0 0
0 1 1
0 2 1
1 0 3
1 1 1
1 2 3
2 0 0
2 1 0
2 2 0
2 46 48 0 9
0 0 3
0 1 3
0 2 2
1 0 1
1 1 0
1 2 0
2 0 0
2 1 0
2 2 2
2 2 3 0 9
0 0 0
0 1 1
0 2 3
1 0 1
1 1 0
1 2 0
2 0 3
2 1 3
2 2 0
2 4 22 0 9
0 0 1
0 1 0
0 2 1
1 0 1
1 1 3
1 2 0
2 0 0
2 1 2
2 2 0
2 8 15 0 9
0 0 1
0 1 0
0 2 0
1 0 1
1 1 0
1 2 1
2 0 3
2 1 3
2 2 0
2 3 14 0 9
0 0 0
0 1 2
0 2 1
1 0 1
1 1 2
1 2 3
2 0 0
2 1 0
2 2 0
2 37 46 0 9
0 0 1
0 1 0
0 2 3
1 0 3
1 1 0
1 2 1
2 0 2
2 1 0
2 2 0
2 3 26 0 9
0 0 2
0 1 2
0 2 1
1 0 3
1 1 0
1 2 3
2 0 0
2 1 0
2 2 0
2 3 24 0 9
0 0 0
0 1 3
0 2 3
1 0 2
1 1 3
1 2 0
2 0 0
2 1 0
2 2 1
2 41 45 0 9
0 0 0
0 1 3
0 2 1
1 0 0
1 1 2
1 2 0
2 0 3
2 1 0
2 2 3
2 33 36 0 9
0 0 0
0 1 2
0 2 0
1 0 3
1 1 0
1 2 2
2 0 2
2 1 0
2 2 2
2 32 42 0 9
0 0 1
0 1 1
0 2 2
1 0 0
1 1 1
1 2 2
2 0 0
2 1 0
2 2 0
2 10 32 0 9
0 0 2
0 1 0
0 2 0
1 0 0
1 1 2
1 2 0
2 0 2
2 1 2
2 2 1
2 13 14 0 9
0 0 2
0 1 1
0 2 3
1 0 0
1 1 0
1 2 0
2 0 2
2 1 0
2 2 1
2 7 26 0 9
0 0 0
0 1 3
0 2 3
1 0 0
1 1 3
1 2 1
2 0 0
2 1 0
2 2 2
2 14 39 0 9
0 0 2
0 1 0
0 2 0
1 0 1
1 1 0
1 2 3
2 0 3
2 1 0
2 2 2
2 18 35 0 9
0 0 3
0 1 0
0 2 1
1 0 3
1 1 0
1 2 0
2 0 2
2 1 0
2 2 1
2 20 31 0 9
0 0 1
0 1 0
0 2 1
1 0 0
1 1 3
1 2 0
2 0 2
2 1 0
2 2 2
2 3 7 0 9
0 0 3
0 1 2
0 2 0
1 0 1
1 1 0
1 2 0
2 0 0
2 1 2
2 2 1
2 4 23 0 9
0 0 1
0 1 0
0 2 0
1 0 0
1 1 1
1 2 3
2 0 0
2 1 1
2 2 2
2 39 44 0 9
0 0 0
0 1 3
0 2 0
1 0 2
1 1 0
1 2 0
2 0 2
2 1 1
2 2 1
2 22 41 0 9
0 0 1
0 1 0
0 2 3
1 0 0
1 1 0
1 2 3
2 0 0
2 1 2
2 2 3
2 1 35 0 9
0 0 1
0 1 3
0 2 2
1 0 2
1 1 0
1 2 0
2 0 0
2 1 0
2 2 3
2 7 29 0 9
0 0 0
0 1 1
0 2 2
1 0 3
1 1 0
1 2 3
2 0 0
2 1 0
2 2 1
2 8 46 0 9
0 0 3
0 1 0
0 2 1
1 0 3
1 1 2
1 2 0
2 0 0
2 1 3
2 2 0
2 28 41 0 9
0 0 2
0 1 0
0 2 0
1 0 2
1 1 3
1 2 3
2 0 2
2 1 0
2 2 0
2 22 24 0 9
0 0 0
0 1 0
0 2 3
1 0 1
1 1 0
1 2 3
2 0 2
2 1 3
2 2 0
2 24 45 0 9
0 0 0
0 1 3
0 2 2
1 0 2
1 1 0
1 2 0
2 0 1
2 1 1
2 2 0
2 23 24 0 9
0 0 0
0 1 2
0 2 0
1 0 3
1 1 0
1 2 1
2 0 2
2 1 1
2 2 0
2 33 49 0 9
0 0 2
0 1 3
0 2 1
1 0 0
1 1 2
1 2 0
2 0 0
2 1 0
2 2 2
2 4 29 0 9
0 0 0
0 1 0
0 2 3
1 0 3
1 1 0
1 2 2
2 0 2
2 1 2
2 2 0
2 6 22 0 9
0 0 0
0 1 2
0 2 1
1 0 0
1 1 0
1 2 1
2 0 0
2 1 2
2 2 2
2 13 15 0 9
0 0 0
0 1 3
0 2 0
1 0 0
1 1 3
1 2 1
2 0 1
2 1 0
2 2 3
2 0 20 0 9
0 0 0
0 1 0
0 2 3
1 0 0
1 1 1
1 2 2
2 0 1
2 1 0
2 2 2
2 12 36 0 9
0 0 3
0 1 0
0 2 2
1 0 0
1 1 1
1 2 2
2 0 3
2 1 0
2 2 0
2 10 43 0 9
0 0 0
0 1 1
0 2 3
1 0 2
1 1 0
1 2 3
2 0 0
2 1 3
2 2 0
2 31 38 0 9
0 0 0
0 1 2
0 2 0
1 0 2
1 1 0
1 2 2
2 0 3
2 1 0
2 2 1
2 8 29 0 9
0 0 3
0 1 0
0 2 1
1 0 0
1 1 0
1 2 2
2 0 0
2 1 2
2 2 2
2 23 42 0 9
0 0 0
0 1 2
0 2 0
1 0 1
1 1 3
1 2 3
2 0 0
2 1 0
2 2 2
2 1 5 0 9
0 0 3
0 1 3
0 2 2
1 0 0
1 1 2
1 2 0
2 0 0
2 1 0
2 2 1
2 8 38 0 9
0 0 1
0 1 2
0 2 0
1 0 0
1 1 0
1 2 3
2 0 2
2 1 0
2 2 3
2 26 32 0 9
0 0 0
0 1 2
0 2 2
1 0 0
1 1 0
1 2 2
2 0 0
2 1 3
2 2 2
2 18 36 0 9
0 0 2
0 1 0
0 2 0
1 0 0
1 1 2
1 2 3
2 0 2
2 1 1
2 2 0
2 14 29 0 9
0 0 3
0 1 0
0 2 2
1 0 2
1 1 2
1 2 0
2 0 0
2 1 0
2 2 1
2 26 33 0 9
0 0 2
0 1 0
0 2 0
1 0 0
1 1 2
1 2 2
2 0 1
2 1 1
2 2 0
2 7 41 0 9
0 0 2
0 1 3
0 2 0
1 0 2
1 1 0
1 2 0
2 0 3
2 1 1
2 2 0
2 23 31 0 9
0 0 0
0 1 3
0 2 0
1 0 0
1 1 1
1 2 3
2 0 0
2 1 1
2 2 2
2 13 46 0 9
0 0 2
0 1 2
0 2 0
1 0 3
1 1 0
1 2 0
2 0 0
2 1 1
2 2 3
2 28 37 0 9
0 0 0
0 1 0
0 2 3
1 0 0
1 1 3
1 2 3
2 0 0
2 1 3
2 2 2
2 5 34 0 9
0 0 2
0 1 3
0 2 0
1 0 2
1 1 3
1 2 0
2 0 2
2 1 0
2 2 0
2 36 45 0 9
0 0 0
0 1 1
0 2 1
1 0 0
1 1 0
1 2 2
2 0 0
2 1 2
2 2 1
2 6 30 0 9
0 0 1
0 1 0
0 2 3
1 0 0
1 1 0
1 2 2
2 0 2
2 1 1
2 2 0
2 4 41 0 9
0 0 2
0 1 0
0 2 3
1 0 0
1 1 1
1 2 0
2 0 0
2 1 3
2 2 3
2 7 20 0 9
0 0 0
0 1 3
0 2 3
1 0 3
1 1 3
1 2 3
2 0 0
2 1 0
2 2 0
2 37 48 0 9
0 0 0
0 1 1
0 2 2
1 0 0
1 1 2
1 2 0
2 0 3
2 1 0
2 2 1
2 10 49 0 9
0 0 1
0 1 0
0 2 0
1 0 0
1 1 1
1 2 0
2 0 2
2 1 2
2 2 1
2 47 48 0 9
0 0 0
0 1 0
0 2 0
1 0 0
1 1 1
1 2 1
2 0 2
2 1 1
2 2 1
2 13 40 0 9
0 0 0
0 1 2
0 2 3
1 0 3
1 1 2
1 2 3
2 0 0
2 1 0
2 2 0
2 14 34 0 9
0 0 0
0 1 2
0 2 0
1 0 2
1 1 2
1 2 2
2 0 0
2 1 2
2 2 0
2 22 39 0 9
0 0 3
0 1 0
0 2 2
1 0 2
1 1 0
1 2 3
2 0 0
2 1 2
2 2 0
2 16 43 0 9
0 0 0
0 1 1
0 2 3
1 0 1
1 1 1
1 2 0
2 0 3
2 1 0
2 2 0
2 24 48 0 9
0 0 0
0 1 3
0 2 1
1 0 0
1 1 0
1 2 2
2 0 2
2 1 0
2 2 2
2 5 29 0 9
0 0 2
0 1 3
0 2 0
1 0 1
1 1 3
1 2 0
2 0 1
2 1 0
2 2 0
2 9 48 0 9
0 0 0
0 1 1
0 2 2
1 0 0
1 1 3
1 2 3
2 0 0
2 1 2
2 2 0
2 22 23 0 9
0 0 0
0 1 0
0 2 1
1 0 1
1 1 2
1 2 3
2 0 0
2 1 0
2 2 2
2 7 30 0 9
0 0 1
0 1 3
0 2 0
1 0 0
1 1 1
1 2 2
2 0 0
2 1 1
2 2 0
2 22 48 0 9
0 0 1
0 1 3
0 2 0
1 0 0
1 1 0
1 2 2
2 0 2
2 1 0
2 2 2
2 5 9 0 9
0 0 3
0 1 0
0 2 1
1 0 0
1 1 0
1 2 0
2 0 2
2 1 3
2 2 1
2 2 12 0 9
0 0 1
0 1 3
0 2 0
1 0 0
1 1 0
1 2 2
2 0 3
2 1 1
2 2 0
2 38 39 0 9
0 0 1
0 1 3
0 2 0
1 0 3
1 1 2
1 2 0
2 0 0
2 1 0
2 2 3
2 7 43 0 9
0 0 0
0 1 1
0 2 0
1 0 2
1 1 0
1 2 0
2 0 3
2 1 3
2 2 2
2 6 29 0 9
0 0 1
0 1 2
0 2 0
1 0 0
1 1 0
1 2 1
2 0 2
2 1 0
2 2 2
2 0 12 0 9
0 0 0
0 1 1
0 2 0
1 0 3
1 1 0
1 2 3
2 0 1
2 1 3
2 2 0
2 6 26 0 9
0 0 3
0 1 2
0 2 0
1 0 0
1 1 0
1 2 0
2 0 2
2 1 2
2 2 1
2 14 24 0 9
0 0 1
0 1 0
0 2 0
1 0 3
1 1 3
1 2 0
2 0 0
2 1 3
2 2 2
2 8 40 0 9
0 0 3
0 1 2
0 2 0
1 0 0
1 1 1
1 2 0
2 0 0
2 1 2
2 2 3
2 1 8 0 9
0 0 2
0 1 0
0 2 0
1 0 0
1 1 3
1 2 3
2 0 3
2 1 0
2 2 2
2 2 29 0 9
0 0 2
0 1 2
0 2 0
1 0 2
1 1 0
1 2 1
2 0 0
2 1 0
2 2 3
2 12 37 0 9
0 0 2
0 1 0
0 2 2
1 0 0
1 1 0
1 2 2
2 0 0
2 1 3
2 2 1
2 12 19 0 9
0 0 0
0 1 2
0 2 1
1 0 0
1 1 3
1 2 0
2 0 3
2 1 1
2 2 0
2 10 18 0 9
0 0 2
0 1 0
0 2 0
1 0 0
1 1 0
1 2 2
2 0 1
2 1 1
2 2 2
2 10 22 0 9
0 0 1
0 1 0
0 2 0
1 0 0
1 1 2
1 2 0
2 0 1
2 1 1
2 2 2
2 23 49 0 9
0 0 1
0 1 3
0 2 3
1 0 0
1 1 0
1 2 2
2 0 0
2 1 3
2 2 0
2 16 42 0 9
0 0 2
0 1 0
0 2 1
1 0 0
1 1 0
1 2 2
2 0 0
2 1 2
2 2 3
2 15 37 0 9
0 0 0
0 1 0
0 2 0
1 0 3
1 1 1
1 2 0
2 0 1
2 1 3
2 2 3
2 17 30 0 9
0 0 1
0 1 0
0 2 0
1 0 0
1 1 2
1 2 2
2 0 2
2 1 0
2 2 2
2 9 41 0 9
0 0 3
0 1 1
0 2 0
1 0 3
1 1 2
1 2 0
2 0 1
2 1 0
2 2 0
2 11 46 0 9
0 0 3
0 1 1
0 2 0
1 0 1
1 1 0
1 2 1
2 0 2
2 1 0
2 2 0
2 10 42 0 9
0 0 1
0 1 3
0 2 1
1 0 0
1 1 0
1 2 0
2 0 1
2 1 3
2 2 0
2 2 11 0 9
0 0 0
0 1 3
0 2 0
1 0 0
1 1 1
1 2 3
2 0 0
2 1 2
2 2 3
2 37 44 0 9
0 0 0
0 1 3
0 2 0
1 0 0
1 1 0
1 2 1
2 0 2
2 1 1
2 2 2
2 39 46 0 9
0 0 2
0 1 0
0 2 0
1 0 2
1 1 3
1 2 0
2 0 3
2 1 0
2 2 3
2 35 43 0 9
0 0 0
0 1 3
0 2 0
1 0 0
1 1 0
1 2 2
2 0 2
2 1 1
2 2 3
2 38 43 0 9
0 0 0
0 1 2
0 2 3
1 0 0
1 1 3
1 2 1
2 0 0
2 1 2
2 2 0
2 40 41 0 9
0 0 0
0 1 2
0 2 3
1 0 0
1 1 3
1 2 0
2 0 0
2 1 3
2 2 1
2 0 29 0 9
0 0 2
0 1 0
0 2 2
1 0 0
1 1 0
1 2 3
2 0 3
2 1 2
2 2 0
2 10 21 0 9
0 0 1
0 1 0
0 2 0
1 0 1
1 1 0
1 2 2
2 0 1
2 1 0
2 2 1
2 0 33 0 9
0 0 1
0 1 3
0 2 0
1 0 0
1 1 2
1 2 0
2 0 1
2 1 0
2 2 2
2 12 22 0 9
0 0 1
0 1 1
0 2 0
1 0 2
1 1 2
1 2 0
2 0 2
2 1 0
2 2 0
2 24 42 0 9
0 0 0
0 1 2
0 2 1
1 0 3
1 1 0
1 2 0
2 0 0
2 1 3
2 2 1
2 20 21 0 9
0 0 1
0 1 0
0 2 2
1 0 0
1 1 3
1 2 0
2 0 0
2 1 1
2 2 1
2 2 10 0 9
0 0 3
0 1 0
0 2 0
1 0 1
1 1 3
1 2 0
2 0 0
2 1 3
2 2 2
2 27 30 0 9
0 0 0
0 1 3
0 2 2
1 0 0
1 1 0
1 2 0
2 0 3
2 1 1
2 2 1
2 20 42 0 9
0 0 2
0 1 1
0 2 0
1 0 1
1 1 2
1 2 0
2 0 0
2 1 2
2 2 0
2 18 23 0 9
0 0 0
0 1 3
0 2 0
1 0 3
1 1 0
1 2 3
2 0 1
2 1 1
2 2 0
2 31 44 0 9
0 0 0
0 1 1
0 2 0
1 0 2
1 1 2
1 2 0
2 0 2
2 1 3
2 2 0
2 28 32 0 9
0 0 2
0 1 0
0 2 0
1 0 0
1 1 0
1 2 3
2 0 2
2 1 1
2 2 3
2 23 30 0 9
0 0 2
0 1 0
0 2 0
1 0 1
1 1 2
1 2 0
2 0 0
2 1 3
2 2 1
2 19 35 0 9
0 0 0
0 1 2
0 2 2
1 0 0
1 1 1
1 2 2
2 0 0
2 1 0
2 2 2
2 0 41 0 9
0 0 2
0 1 0
0 2 0
1 0 0
1 1 3
1 2 1
2 0 0
2 1 2
2 2 3
2 3 40 0 9
0 0 2
0 1 0
0 2 3
1 0 0
1 1 0
1 2 1
2 0 1
2 1 0
2 2 3
2 17 32 0 9
0 0 2
0 1 0
0 2 2
1 0 0
1 1 0
1 2 0
2 0 2
2 1 2
2 2 2
2 9 43 0 9
0 0 1
0 1 2
0 2 0
1 0 1
1 1 0
1 2 0
2 0 2
2 1 0
2 2 2
2 2 39 0 9
0 0 3
0 1 2
0 2 3
1 0 3
1 1 2
1 2 0
2 0 0
2 1 0
2 2 0
2 16 31 0 9
0 0 0
0 1 2
0 2 1
1 0 0
1 1 3
1 2 0
2 0 3
2 1 2
2 2 0
2 13 38 0 9
0 0 1
0 1 0
0 2 0
1 0 3
1 1 0
1 2 3
2 0 3
2 1 0
2 2 1
2 16 33 0 9
0 0 1
0 1 0
0 2 0
1 0 2
1 1 1
1 2 0
2 0 1
2 1 1
2 2 0
2 11 30 0 9
0 0 2
0 1 0
0 2 2
1 0 0
1 1 0
1 2 2
2 0 0
2 1 1
2 2 3
2 45 49 0 9
0 0 2
0 1 0
0 2 0
1 0 0
1 1 1
1 2 2
2 0 3
2 1 0
2 2 3
2 18 42 0 9
0 0 1
0 1 2
0 2 0
1 0 1
1 1 0
1 2 0
2 0 1
2 1 0
2 2 3
2 24 35 0 9
0 0 3
0 1 2
0 2 0
1 0 2
1 1 1
1 2 0
2 0 0
2 1 0
2 2 2
2 23 35 0 9
0 0 0
0 1 0
0 2 2
1 0 3
1 1 1
1 2 1
2 0 3
2 1 0
2 2 0
2 12 18 0 9
0 0 0
0 1 1
0 2 0
1 0 2
1 1 2
1 2 3
2 0 0
2 1 0
2 2 3
2 18 49 0 9
0 0 3
0 1 3
0 2 0
1 0 2
1 1 0
1 2 2
2 0 0
2 1 3
2 2 0
2 0 26 0 9
0 0 3
0 1 0
0 2 2
1 0 0
1 1 0
1 2 3
2 0 1
2 1 1
2 2 0
2 35 38 0 9
0 0 0
0 1 1
0 2 3
1 0 0
1 1 0
1 2 2
2 0 0
2 1 1
2 2 3
2 29 31 0 9
0 0 1
0 1 0
0 2 1
1 0 0
1 1 0
1 2 0
2 0 1
2 1 2
2 2 1
2 6 34 0 9
0 0 0
0 1 0
0 2 3
1 0 2
1 1 0
1 2 0
2 0 1
2 1 3
2 2 1
2 5 43 0 9
0 0 1
0 1 0
0 2 0
1 0 2
1 1 1
1 2 0
2 0 0
2 1 2
2 2 1
2 29 42 0 9
0 0 0
0 1 2
0 2 3
1 0 0
1 1 2
1 2 3
2 0 0
2 1 0
2 2 3
2 31 35 0 9
0 0 0
0 1 1
0 2 2
1 0 0
1 1 3
1 2 2
2 0 0
2 1 2
2 2 0
2 5 21 0 9
0 0 3
0 1 2
0 2 0
1 0 0
1 1 0
1 2 2
2 0 0
2 1 3
2 2 2
2 39 43 0 9
0 0 0
0 1 2
0 2 3
1 0 3
1 1 0
1 2 0
2 0 1
2 1 3
2 2 0
2 7 10 0 9
0 0 0
0 1 0
0 2 3
1 0 2
1 1 3
1 2 0
2 0 3
2 1 1
2 2 0
2 16 46 0 9
0 0 1
0 1 1
0 2 0
1 0 3
1 1 3
1 2 3
2 0 0
2 1 0
2 2 0
2 16 44 0 9
0 0 1
0 1 1
0 2 3
1 0 0
1 1 1
1 2 0
2 0 0
2 1 0
2 2 2
2 18 24 0 9
0 0 0
0 1 2
0 2 0
1 0 0
1 1 3
1 2 1
2 0 1
2 1 3
2 2 0
2 7 25 0 9
0 0 0
0 1 1
0 2 1
1 0 1
1 1 3
1 2 0
2 0 0
2 1 2
2 2 0
2 20 36 0 9
0 0 0
0 1 3
0 2 2
1 0 1
1 1 1
1 2 0
2 0 1
2 1 0
2 2 0
2 8 31 0 9
0 0 2
0 1 2
0 2 0
1 0 0
1 1 0
1 2 0
2 0 3
2 1 2
2 2 2
2 17 24 0 9
0 0 0
0 1 1
0 2 1
1 0 3
1 1 1
1 2 0
2 0 0
2 1 0
2 2 1
2 10 16 0 9
0 0 0
0 1 2
0 2 1
1 0 0
1 1 1
1 2 1
2 0 0
2 1 2
2 2 0
2 36 38 0 9
0 0 0
0 1 1
0 2 2
1 0 0
1 1 3
1 2 2
2 0 3
2 1 0
2 2 0
2 17 48 0 9
0 0 2
0 1 0
0 2 3
1 0 0
1 1 2
1 2 0
2 0 3
2 1 2
2 2 0
2 2 45 0 9
0 0 3
0 1 2
0 2 0
1 0 2
1 1 0
1 2 0
2 0 0
2 1 3
2 2 3
2 35 44 0 9
0 0 2
0 1 0
0 2 3
1 0 1
1 1 0
1 2 3
2 0 0
2 1 0
2 2 1
2 8 18 0 9
0 0 0
0 1 3
0 2 0
1 0 2
1 1 0
1 2 3
2 0 0
2 1 3
2 2 2
2 2 4 0 9
0 0 0
0 1 3
0 2 3
1 0 2
1 1 0
1 2 3
2 0 0
2 1 1
2 2 0
2 2 24 0 9
0 0 0
0 1 3
0 2 0
1 0 0
1 1 3
1 2 2
2 0 2
2 1 3
2 2 0
2 10 28 0 9
0 0 2
0 1 0
0 2 3
1 0 0
1 1 2
1 2 0
2 0 0
2 1 1
2 2 3
2 31 34 0 9
0 0 0
0 1 0
0 2 3
1 0 1
1 1 1
1 2 0
2 0 2
2 1 0
2 2 2
2 15 43 0 9
0 0 2
0 1 0
0 2 2
1 0 0
1 1 0
1 2 2
2 0 2
2 1 0
2 2 3
2 8 22 0 9
0 0 0
0 1 2
0 2 0
1 0 0
1 1 2
1 2 3
2 0 1
2 1 0
2 2 2
2 1 29 0 9
0 0 2
0 1 2
0 2 0
1 0 0
1 1 0
1 2 2
2 0 0
2 1 3
2 2 1
2 0 17 0 9
0 0 2
0 1 0
0 2 0
1 0 1
1 1 2
1 2 2
2 0 0
2 1 1
2 2 0
2 29 35 0 9
0 0 0
0 1 0
0 2 0
1 0 3
1 1 2
1 2 2
2 0 0
2 1 1
2 2 3
2 2 35 0 9
0 0 2
0 1 3
0 2 0
1 0 1
1 1 0
1 2 0
2 0 0
2 1 2
2 2 3
2 17 41 0 9
0 0 1
0 1 2
0 2 0
1 0 0
1 1 2
1 2 3
2 0 0
2 1 3
2 2 0
2 9 15 0 9
0 0 1
0 1 1
0 2 0
1 0 2
1 1 3
1 2 3
2 0 0
2 1 0
2 2 0
2 23 45 0 9
0 0 3
0 1 0
0 2 2
1 0 0
1 1 0
1 2 2
2 0 1
2 1 2
2 2 0
2 14 36 0 9
0 0 0
0 1 0
0 2 1
1 0 1
1 1 0
1 2 3
2 0 0
2 1 3
2 2 1
2 2 42 0 9
0 0 0
0 1 1
0 2 3
1 0 0
1 1 0
1 2 3
2 0 0
2 1 2
2 2 1
2 4 33 0 9
0 0 0
0 1 2
0 2 0
1 0 3
1 1 2
1 2 0
2 0 0
2 1 3
2 2 3
2 8 16 0 9
0 0 0
0 1 1
0 2 1
1 0 0
1 1 1
1 2 1
2 0 0
2 1 0
2 2 1
1 0 512409557603043100 3
0 1
1 3
2 0
1 1 512409557603043100 3
0 1
1 0
2 1
1 2 512409557603043100 3
0 0
1 1
2 1
1 3 512409557603043100 3
0 0
1 2
2 0
1 4 512409557603043100 3
0 1
1 0
2 1
1 5 512409557603043100 3
0 0
1 0
2 2
1 6 512409557603043100 3
0 0
1 3
2 2
1 7 512409557603043100 3
0 2
1 0
2 2
1 8 512409557603043100 3
0 0
1 3
2 0
1 9 512409557603043100 3
0 1
1 0
2 2
1 10 512409557603043100 3
0 1
1 0
2 0
1 11 512409557603043100 3
0 1
1 3
2 0
1 12 512409557603043100 3
0 0
1 1
2 2
1 13 512409557603043100 3
0 2
1 0
2 1
1 14 512409557603043100 3
0 3
1 0
2 2
1 15 512409557603043100 3
0 1
1 2
2 0
1 16 512409557603043100 3
0 2
1 0
2 0
1 17 512409557603043100 3
0 1
1 1
2 0
1 18 512409557603043100 3
0 0
1 2
2 0
1 19 512409557603043100 3
0 3
1 1
2 0
1 20 512409557603043100 3
0 1
1 0
2 1
1 21 512409557603043100 3
0 1
1 0
2 2
1 22 512409557603043100 3
0 2
1 2
2 0
1 23 512409557603043100 3
0 1
1 1
2 0
1 24 512409557603043100 3
0 1
1 2
2 0
1 25 512409557603043100 3
0 1
1 0
2 1
1 26 512409557603043100 3
0 3
1 0
2 2
1 27 512409557603043100 3
0 1
1 3
2 0
1 28 512409557603043100 3
0 3
1 3
2 0
1 29 512409557603043100 3
0 2
1 1
2 0
1 30 512409557603043100 3
0 1
1 2
2 0
1 31 512409557603043100 3
0 3
1 0
2 3
1 32 512409557603043100 3
0 0
1 2
2 1
1 33 512409557603043100 3
0 0
1 3
2 2
1 34 512409557603043100 3
0 0
1 2
2 1
1 35 512409557603043100 3
0 2
1 0
2 0
1 36 512409557603043100 3
0 0
1 0
2 0
1 37 512409557603043100 3
0 0
1 0
2 0
1 38 512409557603043100 3
0 0
1 3
2 1
1 39 512409557603043100 3
0 0
1 0
2 0
1 40 512409557603043100 3
0 0
1 0
2 0
1 41 512409557603043100 3
0 2
1 0
2 1
1 42 512409557603043100 3
0 0
1 3
2 1
1 43 512409557603043100 3
0 1
1 0
2 0
1 44 512409557603043100 3
0 0
1 0
2 0
1 45 512409557603043100 3
0 0
1 1
2 1
1 46 512409557603043100 3
0 1
1 0
2 1
1 47 512409557603043100 3
0 1
1 0
2 2
1 48 512409557603043100 3
0 0
1 3
2 0
1 49 512409557603043100 3
0 1
1 0
2 1
0 23 0
